GLPSOL--GLPK LP/MIP Solver 5.0
Parameter(s) specified in the command line:
 --cpxlp --first inputs/new_no_tr/order/triang7_3_default_input.lp -o solutions/new_no_tr/triang7_3_default_input.lp
Reading problem data from 'inputs/new_no_tr/order/triang7_3_default_input.lp'...
inputs/new_no_tr/order/triang7_3_default_input.lp:4167: warning: lower bound of variable 'm_0_0' redefined
inputs/new_no_tr/order/triang7_3_default_input.lp:4167: warning: upper bound of variable 'm_0_0' redefined
3991 rows, 1597 columns, 11607 non-zeros
1597 integer variables, 1428 of which are binary
5735 lines were read
GLPK Integer Optimizer 5.0
3991 rows, 1597 columns, 11607 non-zeros
1597 integer variables, 1428 of which are binary
Preprocessing...
42 hidden packing inequaliti(es) were detected
84 hidden covering inequaliti(es) were detected
672 constraint coefficient(s) were reduced
3559 rows, 1342 columns, 10123 non-zeros
1342 integer variables, 1313 of which are binary
Scaling...
 A: min|aij| =  1.000e+00  max|aij| =  9.600e+01  ratio =  9.600e+01
GM: min|aij| =  4.347e-01  max|aij| =  2.300e+00  ratio =  5.292e+00
EQ: min|aij| =  1.890e-01  max|aij| =  1.000e+00  ratio =  5.292e+00
2N: min|aij| =  1.250e-01  max|aij| =  1.438e+00  ratio =  1.150e+01
Constructing initial basis...
Size of triangular part is 3223
Solving LP relaxation...
GLPK Simplex Optimizer 5.0
3559 rows, 1342 columns, 10123 non-zeros
      0: obj =   2.260000000e+02 inf =   1.515e+02 (129)
   1203: obj =   3.965401935e+02 inf =   1.107e-13 (0) 11
*  2121: obj =   2.531063830e+02 inf =   9.611e-15 (0) 9
OPTIMAL LP SOLUTION FOUND
Integer optimization begins...
Long-step dual simplex will be used
+  2121: mip =     not found yet >=              -inf        (1; 0)
+ 24143: mip =     not found yet >=   2.540000000e+02        (32; 65)
+ 45880: mip =     not found yet >=   2.550000000e+02        (45; 101)
+ 66820: mip =     not found yet >=   2.550000000e+02        (45; 116)
+ 88444: mip =     not found yet >=   2.560000000e+02        (48; 128)
+108576: mip =     not found yet >=   2.650000000e+02        (50; 149)
+131023: mip =     not found yet >=   2.670000000e+02        (114; 157)
+154728: mip =     not found yet >=   2.670000000e+02        (158; 163)
+176020: mip =     not found yet >=   2.680000000e+02        (251; 168)
+198581: mip =     not found yet >=   2.680000000e+02        (306; 178)
+221225: mip =     not found yet >=   2.680000000e+02        (383; 181)
+241971: mip =     not found yet >=   2.680000000e+02        (432; 186)
Time used: 60.5 secs.  Memory used: 7.4 Mb.
+263063: mip =     not found yet >=   2.700000000e+02        (519; 191)
+286828: mip =     not found yet >=   2.770000000e+02        (612; 195)
+309003: mip =     not found yet >=   2.780000000e+02        (643; 222)
+330826: mip =     not found yet >=   2.780000000e+02        (686; 250)
+352783: mip =     not found yet >=   2.780000000e+02        (727; 279)
+375125: mip =     not found yet >=   2.780000000e+02        (776; 307)
+398534: mip =     not found yet >=   2.780000000e+02        (828; 333)
+420182: mip =     not found yet >=   2.780000000e+02        (875; 367)
+442005: mip =     not found yet >=   2.780000000e+02        (941; 399)
+464449: mip =     not found yet >=   2.780000000e+02        (979; 419)
+485805: mip =     not found yet >=   2.780000000e+02        (1010; 440)
+507802: mip =     not found yet >=   2.780000000e+02        (1043; 466)
Time used: 120.6 secs.  Memory used: 11.4 Mb.
Solution found by heuristic: 360
+531686: mip =   3.600000000e+02 >=   2.780000000e+02  22.8% (1089; 535)
+554560: mip =   3.600000000e+02 >=   2.780000000e+02  22.8% (1128; 575)
+574946: mip =   3.600000000e+02 >=   2.780000000e+02  22.8% (1141; 623)
+596880: mip =   3.600000000e+02 >=   2.780000000e+02  22.8% (1196; 660)
+620413: mip =   3.600000000e+02 >=   2.780000000e+02  22.8% (1239; 692)
+641879: mip =   3.600000000e+02 >=   2.780000000e+02  22.8% (1285; 723)
+664870: mip =   3.600000000e+02 >=   2.780000000e+02  22.8% (1321; 756)
+686727: mip =   3.600000000e+02 >=   2.790000000e+02  22.5% (1351; 801)
+710131: mip =   3.600000000e+02 >=   2.790000000e+02  22.5% (1397; 837)
+732095: mip =   3.600000000e+02 >=   2.790000000e+02  22.5% (1470; 848)
+752290: mip =   3.600000000e+02 >=   2.790000000e+02  22.5% (1501; 868)
Time used: 180.6 secs.  Memory used: 15.1 Mb.
+775791: mip =   3.600000000e+02 >=   2.790000000e+02  22.5% (1549; 881)
+798838: mip =   3.600000000e+02 >=   2.790000000e+02  22.5% (1611; 894)
+821367: mip =   3.600000000e+02 >=   2.790000000e+02  22.5% (1662; 924)
+842061: mip =   3.600000000e+02 >=   2.790000000e+02  22.5% (1698; 940)
+863129: >>>>>   3.450000000e+02 >=   2.790000000e+02  19.1% (1794; 947)
+885508: mip =   3.450000000e+02 >=   2.790000000e+02  19.1% (1750; 1153)
+907393: mip =   3.450000000e+02 >=   2.790000000e+02  19.1% (1780; 1192)
+929655: mip =   3.450000000e+02 >=   2.790000000e+02  19.1% (1818; 1249)
+951345: mip =   3.450000000e+02 >=   2.790000000e+02  19.1% (1862; 1274)
+973715: mip =   3.450000000e+02 >=   2.790000000e+02  19.1% (1898; 1293)
+996525: mip =   3.450000000e+02 >=   2.790000000e+02  19.1% (1935; 1313)
+1019394: mip =   3.450000000e+02 >=   2.790000000e+02  19.1% (1975; 1347)
Time used: 240.7 secs.  Memory used: 19.5 Mb.
+1042089: mip =   3.450000000e+02 >=   2.790000000e+02  19.1% (2043; 1376)
+1065344: mip =   3.450000000e+02 >=   2.790000000e+02  19.1% (2106; 1399)
+1087173: mip =   3.450000000e+02 >=   2.790000000e+02  19.1% (2149; 1427)
+1109503: mip =   3.450000000e+02 >=   2.790000000e+02  19.1% (2227; 1436)
+1132894: mip =   3.450000000e+02 >=   2.790000000e+02  19.1% (2306; 1444)
+1155439: mip =   3.450000000e+02 >=   2.790000000e+02  19.1% (2360; 1473)
+1177820: mip =   3.450000000e+02 >=   2.790000000e+02  19.1% (2430; 1492)
+1202131: mip =   3.450000000e+02 >=   2.790000000e+02  19.1% (2461; 1506)
+1225159: mip =   3.450000000e+02 >=   2.790000000e+02  19.1% (2515; 1530)
+1247555: mip =   3.450000000e+02 >=   2.790000000e+02  19.1% (2552; 1564)
+1270897: mip =   3.450000000e+02 >=   2.790000000e+02  19.1% (2630; 1578)
+1294300: mip =   3.450000000e+02 >=   2.790000000e+02  19.1% (2679; 1605)
Time used: 300.9 secs.  Memory used: 24.1 Mb.
+1316550: mip =   3.450000000e+02 >=   2.790000000e+02  19.1% (2728; 1622)
+1339669: mip =   3.450000000e+02 >=   2.790000000e+02  19.1% (2776; 1633)
+1362673: mip =   3.450000000e+02 >=   2.790000000e+02  19.1% (2837; 1652)
+1365659: >>>>>   3.360000000e+02 >=   2.790000000e+02  17.0% (2877; 1652)
+1388711: mip =   3.360000000e+02 >=   2.790000000e+02  17.0% (2780; 1962)
+1410414: mip =   3.360000000e+02 >=   2.790000000e+02  17.0% (2799; 2013)
+1432391: mip =   3.360000000e+02 >=   2.790000000e+02  17.0% (2827; 2032)
+1455443: mip =   3.360000000e+02 >=   2.790000000e+02  17.0% (2879; 2058)
+1478863: mip =   3.360000000e+02 >=   2.790000000e+02  17.0% (2936; 2088)
+1501550: mip =   3.360000000e+02 >=   2.790000000e+02  17.0% (2958; 2115)
+1524461: mip =   3.360000000e+02 >=   2.790000000e+02  17.0% (2994; 2132)
+1546273: mip =   3.360000000e+02 >=   2.790000000e+02  17.0% (3019; 2150)
+1568535: mip =   3.360000000e+02 >=   2.790000000e+02  17.0% (3047; 2168)
Time used: 361.2 secs.  Memory used: 27.5 Mb.
+1590887: mip =   3.360000000e+02 >=   2.790000000e+02  17.0% (3086; 2181)
+1613929: mip =   3.360000000e+02 >=   2.790000000e+02  17.0% (3123; 2209)
+1635987: mip =   3.360000000e+02 >=   2.790000000e+02  17.0% (3157; 2227)
+1660195: mip =   3.360000000e+02 >=   2.790000000e+02  17.0% (3207; 2241)
+1682899: mip =   3.360000000e+02 >=   2.790000000e+02  17.0% (3249; 2272)
+1705220: mip =   3.360000000e+02 >=   2.790000000e+02  17.0% (3284; 2282)
+1728544: mip =   3.360000000e+02 >=   2.790000000e+02  17.0% (3331; 2314)
+1752877: mip =   3.360000000e+02 >=   2.800000000e+02  16.7% (3374; 2347)
+1775035: mip =   3.360000000e+02 >=   2.800000000e+02  16.7% (3424; 2359)
+1797404: mip =   3.360000000e+02 >=   2.800000000e+02  16.7% (3464; 2371)
+1820531: mip =   3.360000000e+02 >=   2.800000000e+02  16.7% (3524; 2394)
Time used: 421.3 secs.  Memory used: 31.9 Mb.
+1844230: mip =   3.360000000e+02 >=   2.800000000e+02  16.7% (3566; 2444)
+1866730: mip =   3.360000000e+02 >=   2.800000000e+02  16.7% (3607; 2470)
+1889950: mip =   3.360000000e+02 >=   2.800000000e+02  16.7% (3651; 2497)
+1913827: mip =   3.360000000e+02 >=   2.800000000e+02  16.7% (3687; 2538)
+1936356: mip =   3.360000000e+02 >=   2.800000000e+02  16.7% (3737; 2543)
+1959419: mip =   3.360000000e+02 >=   2.800000000e+02  16.7% (3769; 2550)
+1982352: mip =   3.360000000e+02 >=   2.800000000e+02  16.7% (3792; 2564)
+2004450: mip =   3.360000000e+02 >=   2.810000000e+02  16.4% (3830; 2588)
+2027505: mip =   3.360000000e+02 >=   2.810000000e+02  16.4% (3876; 2601)
+2049140: mip =   3.360000000e+02 >=   2.810000000e+02  16.4% (3915; 2614)
+2072007: mip =   3.360000000e+02 >=   2.810000000e+02  16.4% (3950; 2633)
+2093439: mip =   3.360000000e+02 >=   2.810000000e+02  16.4% (3980; 2663)
Time used: 481.7 secs.  Memory used: 36.3 Mb.
+2114642: mip =   3.360000000e+02 >=   2.810000000e+02  16.4% (4011; 2690)
+2136982: mip =   3.360000000e+02 >=   2.820000000e+02  16.1% (4048; 2723)
+2161053: mip =   3.360000000e+02 >=   2.820000000e+02  16.1% (4073; 2754)
+2184303: mip =   3.360000000e+02 >=   2.820000000e+02  16.1% (4122; 2774)
+2208315: mip =   3.360000000e+02 >=   2.820000000e+02  16.1% (4167; 2784)
+2229991: mip =   3.360000000e+02 >=   2.820000000e+02  16.1% (4199; 2790)
+2251928: mip =   3.360000000e+02 >=   2.820000000e+02  16.1% (4235; 2804)
+2273459: mip =   3.360000000e+02 >=   2.820000000e+02  16.1% (4252; 2815)
+2296257: mip =   3.360000000e+02 >=   2.830000000e+02  15.8% (4294; 2862)
+2318592: mip =   3.360000000e+02 >=   2.840000000e+02  15.5% (4340; 2887)
+2341988: mip =   3.360000000e+02 >=   2.840000000e+02  15.5% (4411; 2900)
Time used: 541.7 secs.  Memory used: 41.2 Mb.
+2364556: mip =   3.360000000e+02 >=   2.840000000e+02  15.5% (4469; 2922)
+2387101: mip =   3.360000000e+02 >=   2.840000000e+02  15.5% (4543; 2942)
+2410514: mip =   3.360000000e+02 >=   2.840000000e+02  15.5% (4601; 2954)
+2433862: mip =   3.360000000e+02 >=   2.840000000e+02  15.5% (4650; 2965)
+2457251: mip =   3.360000000e+02 >=   2.840000000e+02  15.5% (4718; 2984)
+2481182: mip =   3.360000000e+02 >=   2.840000000e+02  15.5% (4791; 3003)
+2503364: mip =   3.360000000e+02 >=   2.840000000e+02  15.5% (4839; 3020)
+2524803: mip =   3.360000000e+02 >=   2.840000000e+02  15.5% (4897; 3052)
+2546162: mip =   3.360000000e+02 >=   2.850000000e+02  15.2% (4922; 3093)
+2568585: mip =   3.360000000e+02 >=   2.850000000e+02  15.2% (4942; 3139)
+2592799: mip =   3.360000000e+02 >=   2.850000000e+02  15.2% (5013; 3176)
+2616170: mip =   3.360000000e+02 >=   2.850000000e+02  15.2% (5060; 3216)
Time used: 601.8 secs.  Memory used: 45.9 Mb.
+2639008: mip =   3.360000000e+02 >=   2.850000000e+02  15.2% (5121; 3239)
+2663280: mip =   3.360000000e+02 >=   2.850000000e+02  15.2% (5212; 3254)
+2685026: mip =   3.360000000e+02 >=   2.850000000e+02  15.2% (5235; 3278)
+2706844: mip =   3.360000000e+02 >=   2.850000000e+02  15.2% (5267; 3315)
+2727473: mip =   3.360000000e+02 >=   2.850000000e+02  15.2% (5299; 3332)
+2750612: mip =   3.360000000e+02 >=   2.860000000e+02  14.9% (5363; 3356)
+2774402: mip =   3.360000000e+02 >=   2.860000000e+02  14.9% (5415; 3376)
+2797210: mip =   3.360000000e+02 >=   2.860000000e+02  14.9% (5481; 3404)
+2821575: mip =   3.360000000e+02 >=   2.860000000e+02  14.9% (5532; 3427)
+2844683: mip =   3.360000000e+02 >=   2.860000000e+02  14.9% (5567; 3442)
+2867280: mip =   3.360000000e+02 >=   2.860000000e+02  14.9% (5577; 3467)
+2890770: mip =   3.360000000e+02 >=   2.860000000e+02  14.9% (5637; 3479)
Time used: 661.8 secs.  Memory used: 49.9 Mb.
+2912711: mip =   3.360000000e+02 >=   2.860000000e+02  14.9% (5697; 3501)
+2935215: mip =   3.360000000e+02 >=   2.860000000e+02  14.9% (5756; 3532)
+2958944: mip =   3.360000000e+02 >=   2.860000000e+02  14.9% (5833; 3559)
+2982730: mip =   3.360000000e+02 >=   2.860000000e+02  14.9% (5886; 3577)
+3004986: mip =   3.360000000e+02 >=   2.860000000e+02  14.9% (5940; 3586)
+3028274: mip =   3.360000000e+02 >=   2.860000000e+02  14.9% (6012; 3612)
+3050987: mip =   3.360000000e+02 >=   2.860000000e+02  14.9% (6069; 3626)
+3072850: mip =   3.360000000e+02 >=   2.860000000e+02  14.9% (6123; 3636)
+3095201: mip =   3.360000000e+02 >=   2.860000000e+02  14.9% (6169; 3653)
+3117545: mip =   3.360000000e+02 >=   2.860000000e+02  14.9% (6217; 3672)
+3141340: mip =   3.360000000e+02 >=   2.870000000e+02  14.6% (6283; 3700)
+3164283: mip =   3.360000000e+02 >=   2.870000000e+02  14.6% (6364; 3726)
Time used: 722.0 secs.  Memory used: 54.4 Mb.
+3188396: mip =   3.360000000e+02 >=   2.870000000e+02  14.6% (6412; 3753)
+3211061: mip =   3.360000000e+02 >=   2.870000000e+02  14.6% (6470; 3773)
+3233956: mip =   3.360000000e+02 >=   2.870000000e+02  14.6% (6522; 3791)
+3258888: mip =   3.360000000e+02 >=   2.870000000e+02  14.6% (6602; 3801)
+3279614: mip =   3.360000000e+02 >=   2.870000000e+02  14.6% (6629; 3811)
+3303200: mip =   3.360000000e+02 >=   2.870000000e+02  14.6% (6691; 3855)
+3325866: mip =   3.360000000e+02 >=   2.870000000e+02  14.6% (6766; 3883)
+3348864: mip =   3.360000000e+02 >=   2.870000000e+02  14.6% (6836; 3913)
+3372888: mip =   3.360000000e+02 >=   2.870000000e+02  14.6% (6907; 3936)
+3396034: mip =   3.360000000e+02 >=   2.870000000e+02  14.6% (6989; 3955)
+3419151: mip =   3.360000000e+02 >=   2.870000000e+02  14.6% (7043; 3991)
Time used: 782.0 secs.  Memory used: 58.8 Mb.
+3442747: mip =   3.360000000e+02 >=   2.870000000e+02  14.6% (7108; 4021)
+3466969: mip =   3.360000000e+02 >=   2.870000000e+02  14.6% (7178; 4044)
+3490944: mip =   3.360000000e+02 >=   2.870000000e+02  14.6% (7247; 4071)
+3514207: mip =   3.360000000e+02 >=   2.870000000e+02  14.6% (7292; 4105)
+3537790: mip =   3.360000000e+02 >=   2.870000000e+02  14.6% (7352; 4134)
+3561047: mip =   3.360000000e+02 >=   2.870000000e+02  14.6% (7411; 4154)
+3586434: mip =   3.360000000e+02 >=   2.870000000e+02  14.6% (7514; 4193)
+3611377: mip =   3.360000000e+02 >=   2.870000000e+02  14.6% (7584; 4233)
+3633809: mip =   3.360000000e+02 >=   2.870000000e+02  14.6% (7644; 4263)
+3657660: mip =   3.360000000e+02 >=   2.870000000e+02  14.6% (7710; 4298)
+3680979: mip =   3.360000000e+02 >=   2.870000000e+02  14.6% (7782; 4324)
+3702740: mip =   3.360000000e+02 >=   2.870000000e+02  14.6% (7815; 4332)
Time used: 842.0 secs.  Memory used: 64.8 Mb.
+3726160: mip =   3.360000000e+02 >=   2.870000000e+02  14.6% (7894; 4353)
+3749018: mip =   3.360000000e+02 >=   2.870000000e+02  14.6% (7921; 4383)
+3771274: mip =   3.360000000e+02 >=   2.870000000e+02  14.6% (7979; 4400)
+3794855: mip =   3.360000000e+02 >=   2.870000000e+02  14.6% (8053; 4424)
+3818761: mip =   3.360000000e+02 >=   2.870000000e+02  14.6% (8131; 4464)
+3842804: mip =   3.360000000e+02 >=   2.870000000e+02  14.6% (8210; 4488)
+3864855: mip =   3.360000000e+02 >=   2.870000000e+02  14.6% (8257; 4499)
+3887679: mip =   3.360000000e+02 >=   2.870000000e+02  14.6% (8313; 4529)
+3911801: mip =   3.360000000e+02 >=   2.870000000e+02  14.6% (8370; 4579)
+3935963: mip =   3.360000000e+02 >=   2.870000000e+02  14.6% (8447; 4620)
+3960792: mip =   3.360000000e+02 >=   2.870000000e+02  14.6% (8513; 4633)
+3983485: mip =   3.360000000e+02 >=   2.870000000e+02  14.6% (8574; 4651)
Time used: 902.2 secs.  Memory used: 71.0 Mb.
+4006772: mip =   3.360000000e+02 >=   2.870000000e+02  14.6% (8647; 4680)
+4029174: mip =   3.360000000e+02 >=   2.870000000e+02  14.6% (8678; 4704)
+4052248: mip =   3.360000000e+02 >=   2.870000000e+02  14.6% (8726; 4727)
+4077348: mip =   3.360000000e+02 >=   2.870000000e+02  14.6% (8770; 4772)
+4101079: mip =   3.360000000e+02 >=   2.870000000e+02  14.6% (8874; 4787)
+4124927: mip =   3.360000000e+02 >=   2.870000000e+02  14.6% (8910; 4822)
+4147855: mip =   3.360000000e+02 >=   2.870000000e+02  14.6% (8956; 4845)
+4170389: mip =   3.360000000e+02 >=   2.870000000e+02  14.6% (8994; 4869)
+4194300: mip =   3.360000000e+02 >=   2.870000000e+02  14.6% (9054; 4877)
+4217562: mip =   3.360000000e+02 >=   2.870000000e+02  14.6% (9109; 4887)
+4240126: mip =   3.360000000e+02 >=   2.870000000e+02  14.6% (9161; 4903)
+4262897: mip =   3.360000000e+02 >=   2.870000000e+02  14.6% (9212; 4922)
Time used: 962.3 secs.  Memory used: 75.7 Mb.
+4286138: mip =   3.360000000e+02 >=   2.870000000e+02  14.6% (9297; 4949)
+4310140: mip =   3.360000000e+02 >=   2.870000000e+02  14.6% (9374; 4969)
+4334934: mip =   3.360000000e+02 >=   2.870000000e+02  14.6% (9431; 4999)
+4358422: mip =   3.360000000e+02 >=   2.870000000e+02  14.6% (9479; 5025)
+4379579: mip =   3.360000000e+02 >=   2.870000000e+02  14.6% (9515; 5039)
+4401578: mip =   3.360000000e+02 >=   2.870000000e+02  14.6% (9549; 5067)
+4425316: mip =   3.360000000e+02 >=   2.870000000e+02  14.6% (9606; 5100)
+4448396: mip =   3.360000000e+02 >=   2.870000000e+02  14.6% (9675; 5120)
+4472474: mip =   3.360000000e+02 >=   2.870000000e+02  14.6% (9768; 5148)
+4495663: mip =   3.360000000e+02 >=   2.870000000e+02  14.6% (9817; 5171)
+4517967: mip =   3.360000000e+02 >=   2.870000000e+02  14.6% (9874; 5191)
+4540749: mip =   3.360000000e+02 >=   2.870000000e+02  14.6% (9901; 5225)
Time used: 1022.4 secs.  Memory used: 80.9 Mb.
+4564589: mip =   3.360000000e+02 >=   2.870000000e+02  14.6% (9971; 5262)
+4587768: mip =   3.360000000e+02 >=   2.870000000e+02  14.6% (10035; 5282)
+4610625: mip =   3.360000000e+02 >=   2.870000000e+02  14.6% (10094; 5298)
+4634408: mip =   3.360000000e+02 >=   2.870000000e+02  14.6% (10156; 5327)
+4656699: mip =   3.360000000e+02 >=   2.870000000e+02  14.6% (10204; 5361)
+4679322: mip =   3.360000000e+02 >=   2.870000000e+02  14.6% (10249; 5432)
+4701957: mip =   3.360000000e+02 >=   2.870000000e+02  14.6% (10285; 5465)
+4725173: mip =   3.360000000e+02 >=   2.870000000e+02  14.6% (10325; 5513)
+4747698: mip =   3.360000000e+02 >=   2.870000000e+02  14.6% (10358; 5547)
+4771751: mip =   3.360000000e+02 >=   2.870000000e+02  14.6% (10422; 5574)
+4794353: mip =   3.360000000e+02 >=   2.870000000e+02  14.6% (10473; 5598)
Time used: 1082.4 secs.  Memory used: 86.4 Mb.
+4816580: mip =   3.360000000e+02 >=   2.870000000e+02  14.6% (10534; 5633)
+4842024: mip =   3.360000000e+02 >=   2.870000000e+02  14.6% (10585; 5665)
+4864973: mip =   3.360000000e+02 >=   2.870000000e+02  14.6% (10624; 5691)
+4887374: mip =   3.360000000e+02 >=   2.870000000e+02  14.6% (10666; 5712)
+4910006: mip =   3.360000000e+02 >=   2.870000000e+02  14.6% (10720; 5731)
+4932504: mip =   3.360000000e+02 >=   2.870000000e+02  14.6% (10779; 5759)
+4955219: mip =   3.360000000e+02 >=   2.870000000e+02  14.6% (10835; 5800)
+4978090: mip =   3.360000000e+02 >=   2.870000000e+02  14.6% (10879; 5832)
+5001073: mip =   3.360000000e+02 >=   2.870000000e+02  14.6% (10908; 5856)
+5023655: mip =   3.360000000e+02 >=   2.870000000e+02  14.6% (10951; 5880)
+5045780: mip =   3.360000000e+02 >=   2.870000000e+02  14.6% (10979; 5897)
+5068010: mip =   3.360000000e+02 >=   2.870000000e+02  14.6% (11002; 5937)
Time used: 1142.8 secs.  Memory used: 91.1 Mb.
+5091726: mip =   3.360000000e+02 >=   2.870000000e+02  14.6% (11069; 5973)
+5116445: mip =   3.360000000e+02 >=   2.880000000e+02  14.3% (11119; 5999)
+5140296: mip =   3.360000000e+02 >=   2.880000000e+02  14.3% (11152; 6021)
+5163647: mip =   3.360000000e+02 >=   2.880000000e+02  14.3% (11206; 6028)
+5186482: mip =   3.360000000e+02 >=   2.880000000e+02  14.3% (11259; 6045)
+5209681: mip =   3.360000000e+02 >=   2.880000000e+02  14.3% (11319; 6055)
+5232849: mip =   3.360000000e+02 >=   2.880000000e+02  14.3% (11380; 6070)
+5256416: mip =   3.360000000e+02 >=   2.880000000e+02  14.3% (11441; 6084)
+5280182: mip =   3.360000000e+02 >=   2.880000000e+02  14.3% (11483; 6092)
+5302822: mip =   3.360000000e+02 >=   2.880000000e+02  14.3% (11517; 6104)
+5325061: mip =   3.360000000e+02 >=   2.880000000e+02  14.3% (11565; 6113)
+5347948: mip =   3.360000000e+02 >=   2.880000000e+02  14.3% (11611; 6123)
Time used: 1202.8 secs.  Memory used: 95.0 Mb.
+5369870: mip =   3.360000000e+02 >=   2.880000000e+02  14.3% (11648; 6139)
+5393128: mip =   3.360000000e+02 >=   2.880000000e+02  14.3% (11702; 6161)
+5415771: mip =   3.360000000e+02 >=   2.880000000e+02  14.3% (11758; 6177)
+5438989: mip =   3.360000000e+02 >=   2.880000000e+02  14.3% (11809; 6188)
+5461275: mip =   3.360000000e+02 >=   2.880000000e+02  14.3% (11830; 6199)
+5485316: mip =   3.360000000e+02 >=   2.880000000e+02  14.3% (11874; 6218)
+5508424: mip =   3.360000000e+02 >=   2.880000000e+02  14.3% (11912; 6224)
+5530406: mip =   3.360000000e+02 >=   2.880000000e+02  14.3% (11950; 6229)
+5552484: mip =   3.360000000e+02 >=   2.880000000e+02  14.3% (11997; 6238)
+5575627: mip =   3.360000000e+02 >=   2.880000000e+02  14.3% (12048; 6258)
+5598589: mip =   3.360000000e+02 >=   2.880000000e+02  14.3% (12102; 6270)
+5621245: mip =   3.360000000e+02 >=   2.880000000e+02  14.3% (12151; 6282)
Time used: 1262.9 secs.  Memory used: 98.4 Mb.
+5644165: mip =   3.360000000e+02 >=   2.880000000e+02  14.3% (12193; 6288)
+5666285: mip =   3.360000000e+02 >=   2.880000000e+02  14.3% (12234; 6296)
+5688439: mip =   3.360000000e+02 >=   2.880000000e+02  14.3% (12272; 6302)
+5711469: mip =   3.360000000e+02 >=   2.880000000e+02  14.3% (12321; 6310)
+5733209: mip =   3.360000000e+02 >=   2.880000000e+02  14.3% (12349; 6316)
+5755443: mip =   3.360000000e+02 >=   2.880000000e+02  14.3% (12393; 6323)
+5777323: mip =   3.360000000e+02 >=   2.880000000e+02  14.3% (12430; 6343)
+5799316: mip =   3.360000000e+02 >=   2.880000000e+02  14.3% (12461; 6349)
+5822063: mip =   3.360000000e+02 >=   2.880000000e+02  14.3% (12498; 6358)
+5845014: mip =   3.360000000e+02 >=   2.880000000e+02  14.3% (12537; 6373)
+5867442: mip =   3.360000000e+02 >=   2.880000000e+02  14.3% (12587; 6385)
Time used: 1323.0 secs.  Memory used: 101.5 Mb.
+5889134: mip =   3.360000000e+02 >=   2.880000000e+02  14.3% (12631; 6390)
+5911918: mip =   3.360000000e+02 >=   2.880000000e+02  14.3% (12682; 6402)
+5934105: mip =   3.360000000e+02 >=   2.880000000e+02  14.3% (12716; 6408)
+5955507: mip =   3.360000000e+02 >=   2.880000000e+02  14.3% (12736; 6420)
+5978353: mip =   3.360000000e+02 >=   2.880000000e+02  14.3% (12776; 6439)
+6001477: mip =   3.360000000e+02 >=   2.880000000e+02  14.3% (12811; 6465)
+6023964: mip =   3.360000000e+02 >=   2.880000000e+02  14.3% (12859; 6473)
+6048109: mip =   3.360000000e+02 >=   2.880000000e+02  14.3% (12918; 6492)
+6070307: mip =   3.360000000e+02 >=   2.880000000e+02  14.3% (12971; 6503)
+6094251: mip =   3.360000000e+02 >=   2.880000000e+02  14.3% (13010; 6517)
+6116126: mip =   3.360000000e+02 >=   2.880000000e+02  14.3% (13047; 6535)
+6138874: mip =   3.360000000e+02 >=   2.880000000e+02  14.3% (13099; 6569)
Time used: 1383.0 secs.  Memory used: 105.5 Mb.
+6162247: mip =   3.360000000e+02 >=   2.880000000e+02  14.3% (13158; 6589)
+6184224: mip =   3.360000000e+02 >=   2.880000000e+02  14.3% (13167; 6643)
+6206972: mip =   3.360000000e+02 >=   2.880000000e+02  14.3% (13190; 6673)
+6230585: mip =   3.360000000e+02 >=   2.880000000e+02  14.3% (13235; 6701)
+6255458: mip =   3.360000000e+02 >=   2.880000000e+02  14.3% (13291; 6717)
+6279835: mip =   3.360000000e+02 >=   2.880000000e+02  14.3% (13363; 6736)
+6303889: mip =   3.360000000e+02 >=   2.880000000e+02  14.3% (13434; 6772)
+6328158: mip =   3.360000000e+02 >=   2.880000000e+02  14.3% (13455; 6820)
+6349491: mip =   3.360000000e+02 >=   2.880000000e+02  14.3% (13469; 6845)
+6373534: mip =   3.360000000e+02 >=   2.880000000e+02  14.3% (13546; 6864)
+6396583: mip =   3.360000000e+02 >=   2.880000000e+02  14.3% (13593; 6886)
+6419710: mip =   3.360000000e+02 >=   2.880000000e+02  14.3% (13624; 6902)
Time used: 1443.3 secs.  Memory used: 110.3 Mb.
+6442184: mip =   3.360000000e+02 >=   2.880000000e+02  14.3% (13716; 6929)
+6465869: mip =   3.360000000e+02 >=   2.880000000e+02  14.3% (13768; 6945)
+6488002: mip =   3.360000000e+02 >=   2.880000000e+02  14.3% (13806; 6977)
+6510035: mip =   3.360000000e+02 >=   2.880000000e+02  14.3% (13836; 7013)
+6532915: mip =   3.360000000e+02 >=   2.880000000e+02  14.3% (13883; 7043)
+6554952: mip =   3.360000000e+02 >=   2.880000000e+02  14.3% (13922; 7069)
+6577814: mip =   3.360000000e+02 >=   2.880000000e+02  14.3% (13964; 7088)
+6600356: mip =   3.360000000e+02 >=   2.890000000e+02  14.0% (14002; 7123)
+6622808: mip =   3.360000000e+02 >=   2.890000000e+02  14.0% (14052; 7139)
+6645198: mip =   3.360000000e+02 >=   2.890000000e+02  14.0% (14074; 7173)
+6668605: mip =   3.360000000e+02 >=   2.890000000e+02  14.0% (14095; 7194)
Time used: 1503.3 secs.  Memory used: 114.9 Mb.
+6691698: mip =   3.360000000e+02 >=   2.890000000e+02  14.0% (14158; 7201)
+6714358: mip =   3.360000000e+02 >=   2.890000000e+02  14.0% (14209; 7214)
+6736736: mip =   3.360000000e+02 >=   2.890000000e+02  14.0% (14251; 7237)
+6758754: mip =   3.360000000e+02 >=   2.890000000e+02  14.0% (14298; 7251)
+6782319: mip =   3.360000000e+02 >=   2.890000000e+02  14.0% (14336; 7260)
+6805628: mip =   3.360000000e+02 >=   2.890000000e+02  14.0% (14394; 7276)
+6828254: mip =   3.360000000e+02 >=   2.890000000e+02  14.0% (14448; 7286)
+6851062: mip =   3.360000000e+02 >=   2.890000000e+02  14.0% (14506; 7303)
+6873802: mip =   3.360000000e+02 >=   2.890000000e+02  14.0% (14574; 7328)
+6897083: mip =   3.360000000e+02 >=   2.890000000e+02  14.0% (14610; 7357)
+6919816: mip =   3.360000000e+02 >=   2.890000000e+02  14.0% (14652; 7376)
+6943139: mip =   3.360000000e+02 >=   2.890000000e+02  14.0% (14691; 7394)
Time used: 1563.3 secs.  Memory used: 119.3 Mb.
+6966865: mip =   3.360000000e+02 >=   2.890000000e+02  14.0% (14729; 7425)
+6990954: mip =   3.360000000e+02 >=   2.890000000e+02  14.0% (14784; 7441)
+7013306: mip =   3.360000000e+02 >=   2.890000000e+02  14.0% (14833; 7455)
+7036323: mip =   3.360000000e+02 >=   2.890000000e+02  14.0% (14863; 7479)
+7058871: mip =   3.360000000e+02 >=   2.890000000e+02  14.0% (14904; 7502)
+7081479: mip =   3.360000000e+02 >=   2.890000000e+02  14.0% (14939; 7514)
+7104488: mip =   3.360000000e+02 >=   2.890000000e+02  14.0% (14983; 7547)
+7127236: mip =   3.360000000e+02 >=   2.890000000e+02  14.0% (15006; 7563)
+7151223: mip =   3.360000000e+02 >=   2.890000000e+02  14.0% (15044; 7586)
+7174575: mip =   3.360000000e+02 >=   2.890000000e+02  14.0% (15090; 7603)
+7198050: mip =   3.360000000e+02 >=   2.890000000e+02  14.0% (15130; 7635)
+7220044: mip =   3.360000000e+02 >=   2.890000000e+02  14.0% (15158; 7655)
Time used: 1623.8 secs.  Memory used: 123.9 Mb.
+7242440: mip =   3.360000000e+02 >=   2.890000000e+02  14.0% (15211; 7686)
+7264821: mip =   3.360000000e+02 >=   2.890000000e+02  14.0% (15248; 7718)
+7287672: mip =   3.360000000e+02 >=   2.890000000e+02  14.0% (15294; 7748)
+7309183: mip =   3.360000000e+02 >=   2.890000000e+02  14.0% (15319; 7783)
+7332199: mip =   3.360000000e+02 >=   2.890000000e+02  14.0% (15383; 7807)
+7355607: mip =   3.360000000e+02 >=   2.890000000e+02  14.0% (15468; 7831)
+7379399: mip =   3.360000000e+02 >=   2.890000000e+02  14.0% (15514; 7862)
+7403380: mip =   3.360000000e+02 >=   2.890000000e+02  14.0% (15595; 7882)
+7426900: mip =   3.360000000e+02 >=   2.890000000e+02  14.0% (15665; 7893)
+7449449: mip =   3.360000000e+02 >=   2.890000000e+02  14.0% (15732; 7913)
+7471447: mip =   3.360000000e+02 >=   2.890000000e+02  14.0% (15789; 7957)
+7493510: mip =   3.360000000e+02 >=   2.890000000e+02  14.0% (15808; 8018)
Time used: 1683.8 secs.  Memory used: 130.0 Mb.
+7515906: mip =   3.360000000e+02 >=   2.890000000e+02  14.0% (15843; 8038)
+7538368: mip =   3.360000000e+02 >=   2.900000000e+02  13.7% (15896; 8068)
+7561860: mip =   3.360000000e+02 >=   2.900000000e+02  13.7% (15947; 8079)
+7585137: mip =   3.360000000e+02 >=   2.900000000e+02  13.7% (15979; 8091)
+7607488: mip =   3.360000000e+02 >=   2.900000000e+02  13.7% (16010; 8109)
+7631600: mip =   3.360000000e+02 >=   2.900000000e+02  13.7% (16069; 8123)
+7653990: mip =   3.360000000e+02 >=   2.900000000e+02  13.7% (16112; 8131)
+7676202: mip =   3.360000000e+02 >=   2.900000000e+02  13.7% (16139; 8153)
+7698380: mip =   3.360000000e+02 >=   2.900000000e+02  13.7% (16173; 8168)
+7720573: mip =   3.360000000e+02 >=   2.900000000e+02  13.7% (16216; 8184)
+7742917: mip =   3.360000000e+02 >=   2.900000000e+02  13.7% (16239; 8196)
+7765022: mip =   3.360000000e+02 >=   2.900000000e+02  13.7% (16280; 8217)
Time used: 1744.1 secs.  Memory used: 134.2 Mb.
+7788449: mip =   3.360000000e+02 >=   2.900000000e+02  13.7% (16317; 8232)
+7810492: mip =   3.360000000e+02 >=   2.900000000e+02  13.7% (16346; 8252)
+7834606: mip =   3.360000000e+02 >=   2.900000000e+02  13.7% (16406; 8272)
+7857055: mip =   3.360000000e+02 >=   2.900000000e+02  13.7% (16444; 8278)
+7880492: mip =   3.360000000e+02 >=   2.900000000e+02  13.7% (16499; 8292)
+7903357: mip =   3.360000000e+02 >=   2.900000000e+02  13.7% (16521; 8317)
+7925795: mip =   3.360000000e+02 >=   2.900000000e+02  13.7% (16548; 8325)
+7947373: mip =   3.360000000e+02 >=   2.900000000e+02  13.7% (16573; 8338)
+7969955: mip =   3.360000000e+02 >=   2.900000000e+02  13.7% (16599; 8352)
+7993038: mip =   3.360000000e+02 >=   2.900000000e+02  13.7% (16640; 8366)
